c colouring generated by benchmark framework
p edge 144 2596
v 1 9
v 2 1
v 3 12
v 4 11
v 5 5
v 6 7
v 7 14
v 8 4
v 9 2
v 10 13
v 11 0
v 12 3
v 13 2
v 14 10
v 15 5
v 16 7
v 17 12
v 18 6
v 19 13
v 20 8
v 21 15
v 22 9
v 23 11
v 24 4
v 25 15
v 26 13
v 27 4
v 28 6
v 29 0
v 30 8
v 31 11
v 32 9
v 33 10
v 34 1
v 35 12
v 36 14
v 37 7
v 38 8
v 39 10
v 40 15
v 41 3
v 42 4
v 43 6
v 44 1
v 45 0
v 46 2
v 47 13
v 48 5
v 49 10
v 50 15
v 51 9
v 52 0
v 53 1
v 54 2
v 55 5
v 56 13
v 57 3
v 58 6
v 59 4
v 60 7
v 61 13
v 62 2
v 63 6
v 64 5
v 65 14
v 66 3
v 67 9
v 68 15
v 69 7
v 70 8
v 71 1
v 72 0
v 73 11
v 74 14
v 75 3
v 76 1
v 77 2
v 78 15
v 79 7
v 80 0
v 81 6
v 82 5
v 83 10
v 84 8
v 85 5
v 86 6
v 87 0
v 88 4
v 89 8
v 90 10
v 91 1
v 92 2
v 93 14
v 94 3
v 95 9
v 96 12
v 97 12
v 98 4
v 99 8
v 100 2
v 101 6
v 102 5
v 103 0
v 104 3
v 105 11
v 106 10
v 107 14
v 108 1
v 109 3
v 110 11
v 111 7
v 112 9
v 113 4
v 114 1
v 115 10
v 116 6
v 117 5
v 118 0
v 119 8
v 120 2
v 121 14
v 122 12
v 123 1
v 124 3
v 125 7
v 126 9
v 127 8
v 128 11
v 129 13
v 130 4
v 131 5
v 132 15
v 133 4
v 134 0
v 135 2
v 136 10
v 137 15
v 138 13
v 139 3
v 140 5
v 141 9
v 142 11
v 143 7
v 144 6
